certificates/rado_a6_c160_N27.cnf
c Rad2 upper bound instance: x1 + 6*x2 - x3 = 160, interval [1,27]
p cnf 27 162
1 3 27 0
-1 -3 -27 0
2 4 27 0
-2 -4 -27 0
3 5 27 0
-3 -5 -27 0
4 6 27 0
-4 -6 -27 0
1 5 26 0
-1 -5 -26 0
5 7 27 0
-5 -7 -27 0
2 6 26 0
-2 -6 -26 0
6 8 27 0
-6 -8 -27 0
3 7 26 0
-3 -7 -26 0
7 9 27 0
-7 -9 -27 0
4 8 26 0
-4 -8 -26 0
8 10 27 0
-8 -10 -27 0
5 9 26 0
-5 -9 -26 0
9 11 27 0
-9 -11 -27 0
6 10 26 0
-6 -10 -26 0
10 12 27 0
-10 -12 -27 0
1 11 25 0
-1 -11 -25 0
7 11 26 0
-7 -11 -26 0
11 13 27 0
-11 -13 -27 0
2 12 25 0
-2 -12 -25 0
8 12 26 0
-8 -12 -26 0
12 14 27 0
-12 -14 -27 0
3 13 25 0
-3 -13 -25 0
9 13 26 0
-9 -13 -26 0
13 15 27 0
-13 -15 -27 0
4 14 25 0
-4 -14 -25 0
10 14 26 0
-10 -14 -26 0
14 16 27 0
-14 -16 -27 0
5 15 25 0
-5 -15 -25 0
11 15 26 0
-11 -15 -26 0
15 17 27 0
-15 -17 -27 0
6 16 25 0
-6 -16 -25 0
12 16 26 0
-12 -16 -26 0
16 18 27 0
-16 -18 -27 0
1 17 24 0
-1 -17 -24 0
7 17 25 0
-7 -17 -25 0
13 17 26 0
-13 -17 -26 0
17 19 27 0
-17 -19 -27 0
2 18 24 0
-2 -18 -24 0
8 18 25 0
-8 -18 -25 0
14 18 26 0
-14 -18 -26 0
18 20 27 0
-18 -20 -27 0
3 19 24 0
-3 -19 -24 0
9 19 25 0
-9 -19 -25 0
15 19 26 0
-15 -19 -26 0
19 21 27 0
-19 -21 -27 0
4 20 24 0
-4 -20 -24 0
10 20 25 0
-10 -20 -25 0
16 20 26 0
-16 -20 -26 0
20 22 27 0
-20 -22 -27 0
5 21 24 0
-5 -21 -24 0
11 21 25 0
-11 -21 -25 0
17 21 26 0
-17 -21 -26 0
21 23 27 0
-21 -23 -27 0
6 22 24 0
-6 -22 -24 0
12 22 25 0
-12 -22 -25 0
18 22 26 0
-18 -22 -26 0
22 24 27 0
-22 -24 -27 0
1 23 0
-1 -23 0
7 23 24 0
-7 -23 -24 0
13 23 25 0
-13 -23 -25 0
19 23 26 0
-19 -23 -26 0
23 25 27 0
-23 -25 -27 0
2 23 24 0
-2 -23 -24 0
8 24 0
-8 -24 0
14 24 25 0
-14 -24 -25 0
20 24 26 0
-20 -24 -26 0
24 26 27 0
-24 -26 -27 0
3 23 25 0
-3 -23 -25 0
9 24 25 0
-9 -24 -25 0
15 25 0
-15 -25 0
21 25 26 0
-21 -25 -26 0
25 27 0
-25 -27 0
4 23 26 0
-4 -23 -26 0
10 24 26 0
-10 -24 -26 0
16 25 26 0
-16 -25 -26 0
22 26 0
-22 -26 0
5 23 27 0
-5 -23 -27 0
11 24 27 0
-11 -24 -27 0
17 25 27 0
-17 -25 -27 0
23 26 27 0
-23 -26 -27 0
