certificates/rado_a6_c160_N27.drat
-27 0
25 0
-15 0
13 0
17 0
-3 0
-23 0
-7 0
-26 0
1 0
5 0
21 0
0
